************************************************************************
file with basedata            : md333_.bas
initial value random generator: 1490861521
************************************************************************
projects                      :  1
jobs (incl. supersource/sink ):  22
horizon                       :  155
RESOURCES
  - renewable                 :  2   R
  - nonrenewable              :  2   N
  - doubly constrained        :  0   D
************************************************************************
PROJECT INFORMATION:
pronr.  #jobs rel.date duedate tardcost  MPM-Time
    1     20      0       26       18       26
************************************************************************
PRECEDENCE RELATIONS:
jobnr.    #modes  #successors   successors
   1        1          3           2   3   4
   2        3          3           7   8  19
   3        3          2           5  15
   4        3          2          15  18
   5        3          3           6  10  13
   6        3          3           9  12  17
   7        3          3          10  13  16
   8        3          2          11  16
   9        3          1          18
  10        3          1          11
  11        3          2          12  17
  12        3          1          14
  13        3          3          14  17  18
  14        3          1          20
  15        3          3          16  19  20
  16        3          1          21
  17        3          2          20  21
  18        3          1          21
  19        3          1          22
  20        3          1          22
  21        3          1          22
  22        1          0        
************************************************************************
REQUESTS/DURATIONS:
jobnr. mode duration  R 1  R 2  N 1  N 2
------------------------------------------------------------------------
  1      1     0       0    0    0    0
  2      1     4      10    9    6    0
         2     6       9    6    0    4
         3     9       9    5    5    0
  3      1     3       8    4    6    0
         2     5       8    3    4    0
         3     9       8    2    4    0
  4      1     6       1    4    7    0
         2     7       1    4    0    7
         3    10       1    4    5    0
  5      1     6       4    5    5    0
         2     9       4    3    4    0
         3     9       4    3    0   10
  6      1     5       5    6    3    0
         2     8       4    3    3    0
         3     9       1    2    1    0
  7      1     2       7    8    3    0
         2     8       7    7    0    1
         3     9       6    6    0    1
  8      1     1       8    8    0    3
         2     4       7    7    0    3
         3     8       5    7    0    1
  9      1     6       7    9    6    0
         2     6       7    8    0    6
         3     7       7    7    6    0
 10      1     2       7    2    6    0
         2     4       6    2    0    7
         3     8       3    2    0    5
 11      1     1       5    7    6    0
         2     4       3    4    3    0
         3    10       2    4    1    0
 12      1     1       8    6    7    0
         2     4       6    5    0    3
         3     9       3    5    0    3
 13      1     1       2    4    6    0
         2     9       1    1    3    0
         3     9       2    3    0    9
 14      1     1       8    5    0    4
         2     7       6    4    0    4
         3     8       4    4    8    0
 15      1     3       8    9    0    9
         2     3       9    8    5    0
         3     5       6    3    5    0
 16      1     9       4    7    0    9
         2    10       3    4    5    0
         3    10       4    3    5    0
 17      1     3       7    5    5    0
         2     5       7    4    5    0
         3     7       4    3    0    9
 18      1     1       8    7    0    2
         2     3       8    6    3    0
         3     5       8    5    2    0
 19      1     1       6    6    5    0
         2     2       6    4    4    0
         3     2       6    4    0    8
 20      1     1       9   10    0   10
         2     4       6    8    0    5
         3     6       6    8    0    3
 21      1     5       9   10    0    7
         2     5      10   10   10    0
         3     6       9    7    0   10
 22      1     0       0    0    0    0
************************************************************************
RESOURCEAVAILABILITIES:
  R 1  R 2  N 1  N 2
   13   13   54   58
************************************************************************
MAXIMAL LAGS:
from  to  type  delay
    1   22   ES      0
    1    2   ES      0
    2   22   ES      0
    1    3   ES      0
    3   22   ES      0
    1    4   ES      0
    4   22   ES      0
    1    5   ES      0
    5   22   ES      0
    1    6   ES      0
    6   22   ES      0
    1    7   ES      0
    7   22   ES      0
    1    8   ES      0
    8   22   ES      0
    1    9   ES      0
    9   22   ES      0
    1   10   ES      0
   10   22   ES      0
    1   11   ES      0
   11   22   ES      0
    1   12   ES      0
   12   22   ES      0
    1   13   ES      0
   13   22   ES      0
    1   14   ES      0
   14   22   ES      0
    1   15   ES      0
   15   22   ES      0
    1   16   ES      0
   16   22   ES      0
    1   17   ES      0
   17   22   ES      0
    1   18   ES      0
   18   22   ES      0
    1   19   ES      0
   19   22   ES      0
    1   20   ES      0
   20   22   ES      0
    1   21   ES      0
   21   22   ES      0
    1   22   ES      0
    2    7   SS     -9
    2    7   SE     -6
    2    7   ES      4
    2    7   EE     -5
    2    8   SS      1
    2    8   SE      3
    2    8   ES    -11
    2    8   EE     -8
    2   19   SS     10
    2   19   SE     -4
    2   19   ES    -10
    2   19   EE    -11
    3    5   SS     -5
    3    5   SE      4
    3    5   ES      1
    3    5   EE     10
    3   15   SS     -1
    3   15   SE      2
    3   15   ES     11
    3   15   EE    -10
    4   15   SS      6
    4   15   SE     -9
    4   15   ES      4
    4   15   EE     -8
    4   18   SS      8
    4   18   SE      0
    4   18   ES    -10
    4   18   EE      6
    5    6   SS      6
    5    6   SE    -11
    5    6   ES      1
    5    6   EE      9
    5   10   SS     -8
    5   10   SE     -5
    5   10   ES     -3
    5   10   EE     -4
    5   13   SS     -2
    5   13   SE      0
    5   13   ES     10
    5   13   EE     11
    6    9   SS     -2
    6    9   SE     -2
    6    9   ES      2
    6    9   EE     -4
    6   12   SS     -5
    6   12   SE    -10
    6   12   ES     -6
    6   12   EE     -8
    6   17   SS     12
    6   17   SE     12
    6   17   ES      6
    6   17   EE     -9
    7   10   SS     -8
    7   10   SE     -9
    7   10   ES     -7
    7   10   EE      2
    7   13   SS      2
    7   13   SE     -2
    7   13   ES      1
    7   13   EE     -9
    7   16   SS      5
    7   16   SE     -1
    7   16   ES     12
    7   16   EE     -6
    8   11   SS      2
    8   11   SE     -3
    8   11   ES      2
    8   11   EE     -4
    8   16   SS     -9
    8   16   SE    -10
    8   16   ES     -7
    8   16   EE      9
    9   18   SS     -3
    9   18   SE     10
    9   18   ES     10
    9   18   EE      7
   10   11   SS    -11
   10   11   SE     -6
   10   11   ES     -2
   10   11   EE     -8
   11   12   SS    -10
   11   12   SE     10
   11   12   ES     -5
   11   12   EE     -1
   11   17   SS      0
   11   17   SE      4
   11   17   ES    -11
   11   17   EE      9
   12   14   SS     -3
   12   14   SE     -4
   12   14   ES     -7
   12   14   EE    -12
   13   14   SS      0
   13   14   SE      2
   13   14   ES      5
   13   14   EE     11
   13   17   SS      5
   13   17   SE     -5
   13   17   ES     -9
   13   17   EE      2
   13   18   SS     -9
   13   18   SE     -8
   13   18   ES     -9
   13   18   EE    -12
   14   20   SS    -11
   14   20   SE     12
   14   20   ES     -5
   14   20   EE     -8
   15   16   SS     -6
   15   16   SE      0
   15   16   ES     -1
   15   16   EE      9
   15   19   SS      8
   15   19   SE      8
   15   19   ES    -10
   15   19   EE      6
   15   20   SS      6
   15   20   SE     -4
   15   20   ES    -10
   15   20   EE    -12
   16   21   SS    -10
   16   21   SE     -6
   16   21   ES      8
   16   21   EE      2
   17   20   SS     -8
   17   20   SE    -10
   17   20   ES     -2
   17   20   EE     -9
   17   21   SS    -11
   17   21   SE      2
   17   21   ES    -11
   17   21   EE     -7
   18   21   SS      6
   18   21   SE      1
   18   21   ES     11
   18   21   EE      0
************************************************************************
